0000000000000000
0000000000000000
0000000010000000
0000001111110000
0000001111110000
0000001111110000
0000000011110000
0000000011110000
0000000011110000
0000000111110000
0000011111110000
0000111111110000
0001111011110000
0011111011110000
0000000000000000
0000000000000000
